nNurses = 146;
nHours = 30;
minHours = 4;
maxHours = 19;
maxConsec = 12;
maxPresence = 28;
demand = [24, 23, 24, 24, 21, 24, 20, 25, 25, 29, 27, 24, 29, 24, 25, 30, 35, 34, 37, 33, 37, 35, 36, 35, 31, 30, 35, 39, 37, 34];
